100 22147706
21 25 42 94 27 1 63 62 86 3 79 90 51 64 56 47 31 99 5 23 96 19 66 40 45 15 7 13 49 43 93 97 36 34 29 28 41 89 69 46 67 100 85 88 10 74 14 98 52 8 6 20 75 77 53 24 58 91 9 38 65 48 57 39 37 17 54 16 12 92 59 71 82 73 50 18 4 26 55 30 84 33 87 44 95 11 60 76 2 72 83 81 80 70 68 32 22 78 61 35 
